c 0.0042116641998291016 (encode time in sec)
p cnf 186 357
1 2 3 4 12 0
1 2 3 -4 16 0
1 2 -3 4 6 0
1 2 -3 -4 7 0
1 -2 3 4 5 0
1 -2 3 -4 8 0
1 -2 -3 4 9 0
1 -2 -3 -4 10 0
-1 2 3 4 11 0
-1 2 3 -4 17 0
-1 2 -3 4 13 0
-1 2 -3 -4 14 0
-1 -2 3 4 15 0
-1 -2 3 -4 18 0
-1 -2 -3 4 0
-1 -2 -3 -4 0
19 1 2 3 4 35 0
19 1 2 3 -4 42 0
19 1 2 -3 4 22 0
19 1 2 -3 -4 20 0
19 1 -2 3 4 21 0
19 1 -2 3 -4 23 0
19 1 -2 -3 4 24 0
19 1 -2 -3 -4 25 0
19 -1 2 3 4 26 0
19 -1 2 3 -4 27 0
19 -1 2 -3 4 41 0
19 -1 2 -3 -4 40 0
19 -1 -2 3 4 29 0
19 -1 -2 3 -4 28 0
-19 1 2 3 4 45 0
-19 1 2 3 -4 44 0
-19 1 2 -3 4 38 0
-19 1 2 -3 -4 30 0
-19 1 -2 3 4 28 0
-19 1 -2 3 -4 31 0
-19 1 -2 -3 4 37 0
-19 1 -2 -3 -4 34 0
-19 -1 2 3 4 32 0
-19 -1 2 3 -4 36 0
-19 -1 2 -3 4 43 0
-19 -1 2 -3 -4 33 0
-19 -1 -2 3 4 39 0
-19 -1 -2 3 -4 21 0
46 47 48 49 19 1 2 3 4 101 0
46 47 48 49 19 1 2 3 -4 65 0
46 47 48 49 19 1 2 -3 4 134 0
46 47 48 49 19 1 2 -3 -4 176 0
46 47 48 49 19 1 -2 3 4 163 0
46 47 48 49 19 1 -2 3 -4 83 0
46 47 48 49 19 1 -2 -3 4 156 0
46 47 48 49 19 1 -2 -3 -4 107 0
46 47 48 49 19 -1 2 3 4 108 0
46 47 48 49 19 -1 2 3 -4 130 0
46 47 48 49 19 -1 2 -3 4 142 0
46 47 48 49 19 -1 2 -3 -4 112 0
46 47 48 49 19 -1 -2 3 4 65 0
46 47 48 49 19 -1 -2 3 -4 97 0
46 47 48 49 -19 1 2 3 4 71 0
46 47 48 49 -19 1 2 3 -4 172 0
46 47 48 49 -19 1 2 -3 4 181 0
46 47 48 49 -19 1 2 -3 -4 63 0
46 47 48 49 -19 1 -2 3 4 67 0
46 47 48 49 -19 1 -2 3 -4 184 0
46 47 48 49 -19 1 -2 -3 4 64 0
46 47 48 49 -19 1 -2 -3 -4 54 0
46 47 48 49 -19 -1 2 3 4 80 0
46 47 48 49 -19 -1 2 3 -4 112 0
46 47 48 49 -19 -1 2 -3 4 177 0
46 47 48 49 -19 -1 2 -3 -4 72 0
46 47 48 49 -19 -1 -2 3 4 97 0
46 47 48 49 -19 -1 -2 3 -4 101 0
46 47 48 -49 19 1 2 3 4 101 0
46 47 48 -49 19 1 2 3 -4 65 0
46 47 48 -49 19 1 2 -3 4 102 0
46 47 48 -49 19 1 2 -3 -4 158 0
46 47 48 -49 19 1 -2 3 4 84 0
46 47 48 -49 19 1 -2 3 -4 103 0
46 47 48 -49 19 1 -2 -3 4 118 0
46 47 48 -49 19 1 -2 -3 -4 50 0
46 47 48 -49 19 -1 2 3 4 159 0
46 47 48 -49 19 -1 2 3 -4 166 0
46 47 48 -49 19 -1 2 -3 4 128 0
46 47 48 -49 19 -1 2 -3 -4 85 0
46 47 48 -49 19 -1 -2 3 4 65 0
46 47 48 -49 19 -1 -2 3 -4 97 0
46 47 48 -49 -19 1 2 3 4 71 0
46 47 48 -49 -19 1 2 3 -4 104 0
46 47 48 -49 -19 1 2 -3 4 119 0
46 47 48 -49 -19 1 2 -3 -4 110 0
46 47 48 -49 -19 1 -2 3 4 73 0
46 47 48 -49 -19 1 -2 3 -4 160 0
46 47 48 -49 -19 1 -2 -3 4 131 0
46 47 48 -49 -19 1 -2 -3 -4 61 0
46 47 48 -49 -19 -1 2 3 4 111 0
46 47 48 -49 -19 -1 2 3 -4 173 0
46 47 48 -49 -19 -1 2 -3 4 177 0
46 47 48 -49 -19 -1 2 -3 -4 72 0
46 47 48 -49 -19 -1 -2 3 4 97 0
46 47 48 -49 -19 -1 -2 3 -4 101 0
46 47 -48 49 19 1 2 3 4 101 0
46 47 -48 49 19 1 2 3 -4 86 0
46 47 -48 49 19 1 2 -3 4 120 0
46 47 -48 49 19 1 2 -3 -4 145 0
46 47 -48 49 19 1 -2 3 4 146 0
46 47 -48 49 19 1 -2 3 -4 143 0
46 47 -48 49 19 1 -2 -3 4 147 0
46 47 -48 49 19 1 -2 -3 -4 121 0
46 47 -48 49 19 -1 2 3 4 151 0
46 47 -48 49 19 -1 2 3 -4 87 0
46 47 -48 49 19 -1 2 -3 4 51 0
46 47 -48 49 19 -1 2 -3 -4 52 0
46 47 -48 49 19 -1 -2 3 4 86 0
46 47 -48 49 19 -1 -2 3 -4 135 0
46 47 -48 49 -19 1 2 3 4 55 0
46 47 -48 49 -19 1 2 3 -4 149 0
46 47 -48 49 -19 1 2 -3 4 82 0
46 47 -48 49 -19 1 2 -3 -4 88 0
46 47 -48 49 -19 1 -2 3 4 136 0
46 47 -48 49 -19 1 -2 3 -4 53 0
46 47 -48 49 -19 1 -2 -3 4 93 0
46 47 -48 49 -19 1 -2 -3 -4 179 0
46 47 -48 49 -19 -1 2 3 4 150 0
46 47 -48 49 -19 -1 2 3 -4 92 0
46 47 -48 49 -19 -1 2 -3 4 167 0
46 47 -48 49 -19 -1 2 -3 -4 72 0
46 47 -48 49 -19 -1 -2 3 4 97 0
46 47 -48 49 -19 -1 -2 3 -4 101 0
46 47 -48 -49 19 1 2 3 4 101 0
46 47 -48 -49 19 1 2 3 -4 74 0
46 47 -48 -49 19 1 2 -3 4 161 0
46 47 -48 -49 19 1 2 -3 -4 132 0
46 47 -48 -49 19 1 -2 3 4 152 0
46 47 -48 -49 19 1 -2 3 -4 56 0
46 47 -48 -49 19 1 -2 -3 4 148 0
46 47 -48 -49 19 1 -2 -3 -4 89 0
46 47 -48 -49 19 -1 2 3 4 90 0
46 47 -48 -49 19 -1 2 3 -4 174 0
46 47 -48 -49 19 -1 2 -3 4 91 0
46 47 -48 -49 19 -1 2 -3 -4 133 0
46 47 -48 -49 19 -1 -2 3 4 74 0
46 47 -48 -49 19 -1 -2 3 -4 97 0
46 47 -48 -49 -19 1 2 3 4 105 0
46 47 -48 -49 -19 1 2 3 -4 122 0
46 47 -48 -49 -19 1 2 -3 4 153 0
46 47 -48 -49 -19 1 2 -3 -4 123 0
46 47 -48 -49 -19 1 -2 3 4 141 0
46 47 -48 -49 -19 1 -2 3 -4 154 0
46 47 -48 -49 -19 1 -2 -3 4 57 0
46 47 -48 -49 -19 1 -2 -3 -4 124 0
46 47 -48 -49 -19 -1 2 3 4 96 0
46 47 -48 -49 -19 -1 2 3 -4 52 0
46 47 -48 -49 -19 -1 2 -3 4 165 0
46 47 -48 -49 -19 -1 2 -3 -4 85 0
46 47 -48 -49 -19 -1 -2 3 4 97 0
46 47 -48 -49 -19 -1 -2 3 -4 101 0
46 -47 48 49 19 1 2 3 4 101 0
46 -47 48 49 19 1 2 3 -4 65 0
46 -47 48 49 19 1 2 -3 4 161 0
46 -47 48 49 19 1 2 -3 -4 168 0
46 -47 48 49 19 1 -2 3 4 129 0
46 -47 48 49 19 1 -2 3 -4 117 0
46 -47 48 49 19 1 -2 -3 4 98 0
46 -47 48 49 19 1 -2 -3 -4 69 0
46 -47 48 49 19 -1 2 3 4 58 0
46 -47 48 49 19 -1 2 3 -4 70 0
46 -47 48 49 19 -1 2 -3 4 180 0
46 -47 48 49 19 -1 2 -3 -4 162 0
46 -47 48 49 19 -1 -2 3 4 65 0
46 -47 48 49 19 -1 -2 3 -4 97 0
46 -47 48 49 -19 1 2 3 4 125 0
46 -47 48 49 -19 1 2 3 -4 75 0
46 -47 48 49 -19 1 2 -3 4 126 0
46 -47 48 49 -19 1 2 -3 -4 157 0
46 -47 48 49 -19 1 -2 3 4 100 0
46 -47 48 49 -19 1 -2 3 -4 175 0
46 -47 48 49 -19 1 -2 -3 4 169 0
46 -47 48 49 -19 1 -2 -3 -4 76 0
46 -47 48 49 -19 -1 2 3 4 127 0
46 -47 48 49 -19 -1 2 3 -4 133 0
46 -47 48 49 -19 -1 2 -3 4 170 0
46 -47 48 49 -19 -1 2 -3 -4 72 0
46 -47 48 49 -19 -1 -2 3 4 135 0
46 -47 48 49 -19 -1 -2 3 -4 101 0
46 -47 48 -49 19 1 2 3 4 101 0
46 -47 48 -49 19 1 2 3 -4 65 0
46 -47 48 -49 19 1 2 -3 4 161 0
46 -47 48 -49 19 1 2 -3 -4 114 0
46 -47 48 -49 19 1 -2 3 4 113 0
46 -47 48 -49 19 1 -2 3 -4 144 0
46 -47 48 -49 19 1 -2 -3 4 183 0
46 -47 48 -49 19 1 -2 -3 -4 115 0
46 -47 48 -49 19 -1 2 3 4 116 0
46 -47 48 -49 19 -1 2 3 -4 95 0
46 -47 48 -49 19 -1 2 -3 4 142 0
46 -47 48 -49 19 -1 2 -3 -4 112 0
46 -47 48 -49 19 -1 -2 3 4 65 0
46 -47 48 -49 19 -1 -2 3 -4 97 0
46 -47 48 -49 -19 1 2 3 4 71 0
46 -47 48 -49 -19 1 2 3 -4 172 0
46 -47 48 -49 -19 1 2 -3 4 137 0
46 -47 48 -49 -19 1 2 -3 -4 81 0
46 -47 48 -49 -19 1 -2 3 4 185 0
46 -47 48 -49 -19 1 -2 3 -4 139 0
46 -47 48 -49 -19 1 -2 -3 4 77 0
46 -47 48 -49 -19 1 -2 -3 -4 66 0
46 -47 48 -49 -19 -1 2 3 4 171 0
46 -47 48 -49 -19 -1 2 3 -4 112 0
46 -47 48 -49 -19 -1 2 -3 4 177 0
46 -47 48 -49 -19 -1 2 -3 -4 72 0
46 -47 48 -49 -19 -1 -2 3 4 97 0
46 -47 48 -49 -19 -1 -2 3 -4 101 0
46 -47 -48 49 19 1 2 3 4 101 0
46 -47 -48 49 19 1 2 3 -4 65 0
46 -47 -48 49 19 1 2 -3 4 161 0
46 -47 -48 49 19 1 2 -3 -4 114 0
46 -47 -48 49 19 1 -2 3 4 113 0
46 -47 -48 49 19 1 -2 3 -4 144 0
46 -47 -48 49 19 1 -2 -3 4 183 0
46 -47 -48 49 19 1 -2 -3 -4 115 0
46 -47 -48 49 19 -1 2 3 4 116 0
46 -47 -48 49 19 -1 2 3 -4 95 0
46 -47 -48 49 19 -1 2 -3 4 142 0
46 -47 -48 49 19 -1 2 -3 -4 112 0
46 -47 -48 49 19 -1 -2 3 4 65 0
46 -47 -48 49 19 -1 -2 3 -4 97 0
46 -47 -48 49 -19 1 2 3 4 71 0
46 -47 -48 49 -19 1 2 3 -4 172 0
46 -47 -48 49 -19 1 2 -3 4 140 0
46 -47 -48 49 -19 1 2 -3 -4 94 0
46 -47 -48 49 -19 1 -2 3 4 99 0
46 -47 -48 49 -19 1 -2 3 -4 164 0
46 -47 -48 49 -19 1 -2 -3 4 109 0
46 -47 -48 49 -19 1 -2 -3 -4 59 0
46 -47 -48 49 -19 -1 2 3 4 80 0
46 -47 -48 49 -19 -1 2 3 -4 112 0
46 -47 -48 49 -19 -1 2 -3 4 177 0
46 -47 -48 49 -19 -1 2 -3 -4 106 0
46 -47 -48 49 -19 -1 -2 3 4 97 0
46 -47 -48 49 -19 -1 -2 3 -4 101 0
46 -47 -48 -49 19 1 2 3 4 101 0
46 -47 -48 -49 19 1 2 3 -4 65 0
46 -47 -48 -49 19 1 2 -3 4 161 0
46 -47 -48 -49 19 1 2 -3 -4 114 0
46 -47 -48 -49 19 1 -2 3 4 113 0
46 -47 -48 -49 19 1 -2 3 -4 144 0
46 -47 -48 -49 19 1 -2 -3 4 183 0
46 -47 -48 -49 19 1 -2 -3 -4 115 0
46 -47 -48 -49 19 -1 2 3 4 116 0
46 -47 -48 -49 19 -1 2 3 -4 95 0
46 -47 -48 -49 19 -1 2 -3 4 142 0
46 -47 -48 -49 19 -1 2 -3 -4 112 0
46 -47 -48 -49 19 -1 -2 3 4 65 0
46 -47 -48 -49 19 -1 -2 3 -4 97 0
46 -47 -48 -49 -19 1 2 3 4 71 0
46 -47 -48 -49 -19 1 2 3 -4 155 0
46 -47 -48 -49 -19 1 2 -3 4 181 0
46 -47 -48 -49 -19 1 2 -3 -4 68 0
46 -47 -48 -49 -19 1 -2 3 4 78 0
46 -47 -48 -49 -19 1 -2 3 -4 178 0
46 -47 -48 -49 -19 1 -2 -3 4 109 0
46 -47 -48 -49 -19 1 -2 -3 -4 61 0
46 -47 -48 -49 -19 -1 2 3 4 80 0
46 -47 -48 -49 -19 -1 2 3 -4 112 0
46 -47 -48 -49 -19 -1 2 -3 4 177 0
46 -47 -48 -49 -19 -1 2 -3 -4 72 0
46 -47 -48 -49 -19 -1 -2 3 4 97 0
46 -47 -48 -49 -19 -1 -2 3 -4 101 0
-46 47 48 49 19 1 2 3 4 101 0
-46 47 48 49 19 1 2 3 -4 65 0
-46 47 48 49 19 1 2 -3 4 161 0
-46 47 48 49 19 1 2 -3 -4 114 0
-46 47 48 49 19 1 -2 3 4 113 0
-46 47 48 49 19 1 -2 3 -4 144 0
-46 47 48 49 19 1 -2 -3 4 183 0
-46 47 48 49 19 1 -2 -3 -4 115 0
-46 47 48 49 19 -1 2 3 4 116 0
-46 47 48 49 19 -1 2 3 -4 95 0
-46 47 48 49 19 -1 2 -3 4 142 0
-46 47 48 49 19 -1 2 -3 -4 112 0
-46 47 48 49 19 -1 -2 3 4 65 0
-46 47 48 49 19 -1 -2 3 -4 97 0
-46 47 48 49 -19 1 2 3 4 180 0
-46 47 48 49 -19 1 2 3 -4 172 0
-46 47 48 49 -19 1 2 -3 4 181 0
-46 47 48 49 -19 1 2 -3 -4 63 0
-46 47 48 49 -19 1 -2 3 4 67 0
-46 47 48 49 -19 1 -2 3 -4 182 0
-46 47 48 49 -19 1 -2 -3 4 79 0
-46 47 48 49 -19 1 -2 -3 -4 62 0
-46 47 48 49 -19 -1 2 3 4 138 0
-46 47 48 49 -19 -1 2 3 -4 112 0
-46 47 48 49 -19 -1 2 -3 4 177 0
-46 47 48 49 -19 -1 2 -3 -4 72 0
-46 47 48 49 -19 -1 -2 3 4 97 0
-46 47 48 49 -19 -1 -2 3 -4 101 0
-46 47 48 -49 19 1 2 3 4 101 0
-46 47 48 -49 19 1 2 3 -4 65 0
-46 47 48 -49 19 1 2 -3 4 161 0
-46 47 48 -49 19 1 2 -3 -4 114 0
-46 47 48 -49 19 1 -2 3 4 113 0
-46 47 48 -49 19 1 -2 3 -4 144 0
-46 47 48 -49 19 1 -2 -3 4 183 0
-46 47 48 -49 19 1 -2 -3 -4 115 0
-46 47 48 -49 19 -1 2 3 4 116 0
-46 47 48 -49 19 -1 2 3 -4 95 0
-46 47 48 -49 19 -1 2 -3 4 142 0
-46 47 48 -49 19 -1 2 -3 -4 112 0
-46 47 48 -49 19 -1 -2 3 4 65 0
-46 47 48 -49 19 -1 -2 3 -4 97 0
-46 47 48 -49 -19 1 2 3 4 71 0
-46 47 48 -49 -19 1 2 3 -4 172 0
-46 47 48 -49 -19 1 2 -3 4 181 0
-46 47 48 -49 -19 1 2 -3 -4 63 0
-46 47 48 -49 -19 1 -2 3 4 78 0
-46 47 48 -49 -19 1 -2 3 -4 186 0
-46 47 48 -49 -19 1 -2 -3 4 64 0
-46 47 48 -49 -19 1 -2 -3 -4 60 0
-46 47 48 -49 -19 -1 2 3 4 80 0
-46 47 48 -49 -19 -1 2 3 -4 112 0
-46 47 48 -49 -19 -1 2 -3 4 177 0
-46 47 48 -49 -19 -1 2 -3 -4 72 0
-46 47 48 -49 -19 -1 -2 3 4 97 0
-46 47 48 -49 -19 -1 -2 3 -4 101 0
-46 47 -48 49 19 1 2 3 4 101 0
-46 47 -48 49 19 1 2 3 -4 65 0
-46 47 -48 49 19 1 2 -3 4 161 0
-46 47 -48 49 19 1 2 -3 -4 114 0
-46 47 -48 49 19 1 -2 3 4 113 0
-46 47 -48 49 19 1 -2 3 -4 144 0
-46 47 -48 49 19 1 -2 -3 4 183 0
-46 47 -48 49 19 1 -2 -3 -4 115 0
-46 47 -48 49 19 -1 2 3 4 116 0
-46 47 -48 49 19 -1 2 3 -4 95 0
-46 47 -48 49 19 -1 2 -3 4 142 0
-46 47 -48 49 19 -1 2 -3 -4 112 0
-46 47 -48 49 19 -1 -2 3 4 65 0
-46 47 -48 49 19 -1 -2 3 -4 97 0
-46 47 -48 49 -19 1 2 3 4 71 0
-46 47 -48 49 -19 1 2 3 -4 172 0
-46 47 -48 49 -19 1 2 -3 4 181 0
-46 47 -48 49 -19 1 2 -3 -4 68 0
-46 47 -48 49 -19 1 -2 3 4 67 0
-46 47 -48 49 -19 1 -2 3 -4 184 0
-46 47 -48 49 -19 1 -2 -3 4 64 0
-46 47 -48 49 -19 1 -2 -3 -4 54 0
-46 47 -48 49 -19 -1 2 3 4 80 0
-46 47 -48 49 -19 -1 2 3 -4 112 0
-46 47 -48 49 -19 -1 2 -3 4 177 0
-46 47 -48 49 -19 -1 2 -3 -4 72 0
-46 47 -48 49 -19 -1 -2 3 4 97 0
-46 47 -48 49 -19 -1 -2 3 -4 101 0
-46 47 -48 -49 0
-46 -47 48 49 0
-46 -47 48 -49 0
-46 -47 -48 49 0
-46 -47 -48 -49 0
